SECTION Graph
Nodes 160
Edges 159

E 1 38 287
E 2 158 287
E 3 139 290
E 4 8 279
E 4 20 286
E 4 84 287
E 4 158 288
E 5 63 287
E 6 119 289
E 7 133 288
E 7 137 287
E 8 50 288
E 9 56 288
E 10 127 284
E 11 16 290
E 12 67 287
E 12 83 288
E 13 16 285
E 13 87 285
E 13 140 288
E 13 143 287
E 14 55 289
E 14 108 288
E 14 137 287
E 15 48 287
E 15 57 287
E 15 89 286
E 16 44 288
E 16 62 286
E 16 99 285
E 16 107 287
E 17 19 284
E 17 43 287
E 17 119 285
E 17 151 289
E 18 136 288
E 19 64 291
E 19 128 286
E 21 147 288
E 22 104 286
E 23 137 288
E 24 102 288
E 24 103 286
E 24 111 289
E 25 150 288
E 25 155 284
E 26 95 288
E 27 42 289
E 28 130 286
E 28 131 289
E 29 57 288
E 29 95 282
E 29 96 285
E 29 156 288
E 30 69 289
E 31 96 289
E 32 108 288
E 33 94 288
E 34 63 285
E 34 80 287
E 34 94 285
E 34 109 285
E 35 135 281
E 36 139 290
E 37 57 286
E 38 41 288
E 38 114 287
E 38 146 285
E 39 58 284
E 39 75 285
E 39 83 287
E 39 115 286
E 40 76 281
E 41 81 286
E 41 154 289
E 42 43 284
E 43 113 288
E 43 145 285
E 44 71 288
E 45 113 286
E 46 153 284
E 47 114 289
E 49 128 287
E 49 160 286
E 50 104 286
E 51 69 282
E 51 120 288
E 52 54 287
E 52 129 288
E 53 124 290
E 56 117 288
E 57 104 284
E 59 101 287
E 59 120 285
E 60 88 288
E 61 132 289
E 62 91 282
E 62 126 287
E 62 127 286
E 63 127 287
E 65 114 287
E 66 72 285
E 66 76 289
E 68 87 288
E 68 129 289
E 69 86 287
E 70 78 286
E 70 88 285
E 70 124 286
E 73 91 288
E 74 155 287
E 75 152 288
E 76 138 286
E 77 145 289
E 78 109 285
E 79 112 286
E 82 96 289
E 82 122 287
E 85 94 288
E 88 160 284
E 89 114 285
E 89 118 288
E 89 159 285
E 90 99 284
E 90 134 286
E 90 138 287
E 92 151 289
E 93 121 288
E 93 134 288
E 93 144 286
E 94 130 284
E 95 120 288
E 95 133 288
E 97 148 289
E 98 119 287
E 98 142 288
E 99 125 288
E 100 125 291
E 101 103 288
E 101 155 287
E 103 110 288
E 105 128 288
E 106 152 287
E 112 135 287
E 114 136 282
E 115 135 287
E 115 139 285
E 115 147 280
E 116 140 289
E 117 146 288
E 119 136 287
E 119 139 286
E 119 141 287
E 123 126 289
E 125 149 287
E 128 132 284
E 139 148 289
E 143 157 287
E 153 155 288
END
SECTION Terminals
T 1
T 2
T 3
T 4
T 5
T 6
T 7
T 8
T 9
T 10
T 11
T 12
T 13
T 14
T 15
T 16
T 17
T 18
T 19
T 20
T 21
T 22
T 23
T 24
T 25
T 26
T 27
T 28
T 29
T 30
T 31
T 32
T 33
T 34
T 35
T 36
T 37
T 38
T 39
T 40
T 41
T 42
T 43
T 44
T 45
T 46
T 47
T 48
T 49
T 50
T 51
T 52
T 53
T 54
T 55
T 56
T 57
T 58
T 59
T 60
T 61
T 62
T 63
T 64
T 65
T 66
T 67
T 68
T 69
T 70
T 71
T 72
T 73
T 74
T 75
T 76
T 77
T 78
T 79
T 80
T 81
T 82
T 83
T 84
T 85
T 86
T 87
T 88
T 89
T 90
T 91
T 92
T 93
T 94
T 95
T 96
T 97
T 98
T 99
T 100
T 101
T 102
T 103
T 104
T 105
T 106
T 107
T 108
T 109
T 110
T 111
T 112
T 113
T 114
T 115
T 116
T 117
T 118
T 119
T 120
T 121
T 122
T 123
T 124
T 125
T 126
T 127
T 128
T 129
T 130
T 131
T 132
T 133
T 134
T 135
T 136
T 137
T 138
T 139
T 140
T 141
T 142
T 143
T 144
T 145
T 146
T 147
T 148
T 149
T 150
T 151
T 152
T 153
T 154
T 155
T 156
T 157
T 158
T 159
T 160
END
SECTION Cost
45597
END
